39189
1 1 1 0 1 0 1 1 1 0 1 0 0 0 0 1 0 0 0 0 0 0 0 0 0 1 0 0 1 0 
7 1 2 6 2 25 2 28 1 28 4 28 10 1 28 7 1 10 15 1 7 15 2 2 10 6 1 8 6 2 28 4 4 6 28 6 8 8 2 15 7 8 28 4 8 4 1 2 1 10 1 6 0 2 8 28 25 8 7 25 4 0 7 8 8 25 0 28 28 25 7 25 4 8 10 10 10 2 8 6 10 0 8 25 4 10 6 2 1 25 7 1 25 25 0 1 28 28 0 28 28 15 25 7 4 0 4 15 15 1 28 4 15 1 7 8 7 7 28 8 8 1 28 4 1 15 2 25 4 0 28 2 25 10 15 8 1 8 28 10 25 1 28 25 25 1 2 15 15 25 0 0 10 0 8 7 2 15 1 1 1 28 10 0 1 15 15 4 1 15 15 8 1 10 4 0 0 10 4 10 2 15 0 6 25 8 7 1 28 2 2 15 1 4 7 7 7 15 10 1 